% seed = 1771623

mint = 59;
% maxt = 215;

nActs = 42;
dur = [0,1,6,3,10,10,5,8,6,2,2,7,10,2,4,10,2,1,1,4,7,6,8,8,8,6,4,6,6,9,8,2,6,4,2,4,5,3,2,8,9,0];

nSkills = 4;
sreq = [| 0,0,0,0,
	| 6,0,0,5,
	| 0,7,3,0,
	| 0,0,5,5,
	| 0,0,2,1,
	| 0,2,6,0,
	| 0,3,3,0,
	| 0,0,4,3,
	| 0,5,0,5,
	| 0,0,3,4,
	| 5,0,0,5,
	| 3,0,0,3,
	| 0,0,4,3,
	| 4,1,0,0,
	| 0,4,4,0,
	| 4,0,5,0,
	| 0,2,0,3,
	| 4,0,4,0,
	| 0,3,0,4,
	| 0,0,7,3,
	| 3,3,0,0,
	| 0,4,0,6,
	| 3,0,0,6,
	| 0,2,0,3,
	| 5,0,6,0,
	| 5,0,4,0,
	| 0,0,4,6,
	| 0,2,6,0,
	| 2,0,0,5,
	| 0,6,4,0,
	| 0,3,4,0,
	| 3,0,0,4,
	| 4,6,0,0,
	| 4,7,0,0,
	| 3,0,6,0,
	| 0,0,7,2,
	| 4,3,0,0,
	| 2,4,0,0,
	| 0,4,0,4,
	| 0,3,0,6,
	| 1,0,4,0,
	| 0,0,0,0, |];

nResources = 30;
mastery = [| true,true,false,false,
	| false,true,false,true,
	| true,false,true,true,
	| false,false,false,true,
	| false,true,false,false,
	| true,true,true,false,
	| false,false,true,false,
	| false,false,false,true,
	| false,false,true,false,
	| false,false,false,true,
	| false,true,true,false,
	| true,false,true,true,
	| false,false,true,true,
	| true,false,true,false,
	| true,false,false,false,
	| true,true,false,true,
	| false,false,true,true,
	| true,false,false,false,
	| false,false,true,false,
	| true,false,false,false,
	| false,false,true,true,
	| true,false,true,false,
	| false,true,true,true,
	| true,true,false,true,
	| false,false,true,false,
	| true,false,true,true,
	| false,false,false,true,
	| true,true,false,false,
	| false,true,false,false,
	| true,false,true,true, |];

nPrecs = 85;
pred = [1,1,1,2,2,2,3,3,3,4,4,4,5,5,5,6,6,6,7,7,7,8,8,8,9,9,9,10,10,11,11,11,12,13,13,13,14,14,14,15,15,15,16,16,16,17,17,17,18,18,19,19,20,20,20,21,21,22,23,24,24,24,25,25,25,26,26,27,28,28,29,30,31,31,32,32,33,34,35,36,37,38,39,40,41];
succ = [2,3,4,21,5,14,6,7,22,10,13,8,20,6,15,9,23,32,25,20,39,25,30,16,11,29,27,35,15,18,12,31,19,14,31,24,17,20,32,34,29,23,26,27,21,18,30,39,34,19,26,28,33,29,23,22,24,37,38,41,35,32,26,27,28,33,36,31,41,33,36,36,41,34,37,39,35,37,40,38,38,40,42,42,42];

nUnrels = 383;
unpred = [2,2,2,2,2,2,2,2,3,3,3,3,3,3,3,3,3,3,3,3,4,4,4,4,4,4,5,5,5,5,5,5,5,5,5,5,5,5,6,6,6,6,6,6,6,6,6,6,6,6,6,6,7,7,7,7,7,7,7,7,7,7,7,7,7,7,7,7,7,8,8,8,8,8,8,8,8,8,8,8,8,8,9,9,9,9,9,9,9,9,9,9,9,9,9,9,9,10,10,10,10,10,10,10,10,10,10,10,10,10,10,10,10,10,10,10,10,10,10,11,11,11,11,11,11,11,11,11,11,11,11,11,11,11,11,12,12,12,12,12,12,12,12,12,12,12,12,12,12,12,12,12,12,12,12,13,13,13,13,13,13,14,14,14,14,14,14,14,14,15,15,15,15,15,15,15,15,15,15,15,15,15,15,15,15,15,15,15,16,16,16,16,16,16,16,16,16,17,17,17,17,17,17,17,17,17,17,18,18,18,18,18,18,18,18,18,18,18,18,19,19,19,19,19,19,19,19,19,19,19,19,19,19,20,20,20,20,20,20,20,20,20,20,20,20,20,20,21,21,21,21,21,21,21,21,21,21,21,22,22,22,22,22,22,22,22,22,22,22,22,22,22,22,22,23,23,23,23,23,23,23,23,23,23,23,23,23,23,23,23,24,24,24,24,24,24,24,24,24,24,25,25,25,25,26,26,26,26,26,26,26,26,26,26,27,27,27,27,27,27,27,27,28,28,28,28,28,28,28,28,28,29,29,29,29,29,29,29,29,29,30,30,30,30,30,30,30,30,31,31,31,31,31,32,32,32,32,32,33,33,33,33,33,33,34,34,34,34,35,35,35,35,35,36,36,36,37,37,38,38,39,39,40];
unsucc = [3,4,7,8,10,13,16,25,4,5,8,10,13,14,15,16,17,21,24,30,5,6,7,9,11,12,7,8,10,13,14,16,17,21,22,24,25,30,7,8,10,13,14,15,16,17,20,21,22,24,25,30,8,9,10,11,12,13,14,15,16,17,18,19,21,22,24,30,32,9,10,11,12,13,14,15,17,18,19,20,23,29,10,13,14,15,16,17,20,21,22,23,24,25,30,32,39,11,12,13,14,16,17,18,19,20,21,22,24,25,26,27,28,30,31,32,33,39,41,13,14,15,16,17,20,21,22,23,24,25,27,29,30,32,39,13,14,15,16,17,18,20,21,22,23,24,25,27,29,30,31,32,34,37,39,15,16,21,22,25,27,15,16,21,22,24,25,27,31,16,17,18,19,20,21,22,24,25,26,27,28,30,31,32,33,35,39,41,17,18,19,20,23,25,28,29,30,20,21,22,23,24,25,27,29,31,32,20,21,22,23,24,25,27,29,30,31,32,39,20,21,22,23,24,25,27,29,30,31,32,34,37,39,21,22,24,25,26,27,28,30,31,32,34,37,39,41,23,25,26,27,28,29,30,31,33,34,36,23,24,25,26,27,28,29,30,31,32,33,34,35,36,39,41,24,25,26,27,28,29,30,31,32,33,34,35,36,37,39,41,25,26,27,28,29,30,31,33,34,36,29,30,32,39,27,28,29,30,31,32,34,37,39,41,28,29,30,32,33,35,36,39,29,30,31,32,34,36,37,38,39,30,31,32,33,34,35,37,39,41,31,32,33,34,35,37,39,41,32,33,35,36,39,33,34,35,36,41,34,36,37,38,39,41,35,36,39,41,36,37,38,39,41,37,39,41,39,41,39,41,40,41,41];

USEFUL_RES = [{},
	{1,2,3,4,6,8,10,12,13,14,15,16,17,18,20,21,22,23,24,26,27,28,30},
	{1,2,3,5,6,7,9,11,12,13,14,16,17,19,21,22,23,24,25,26,28,29,30},
	{2,3,4,6,7,8,9,10,11,12,13,14,16,17,19,21,22,23,24,25,26,27,30},
	{2,3,4,6,7,8,9,10,11,12,13,14,16,17,19,21,22,23,24,25,26,27,30},
	{1,2,3,5,6,7,9,11,12,13,14,16,17,19,21,22,23,24,25,26,28,29,30},
	{1,2,3,5,6,7,9,11,12,13,14,16,17,19,21,22,23,24,25,26,28,29,30},
	{2,3,4,6,7,8,9,10,11,12,13,14,16,17,19,21,22,23,24,25,26,27,30},
	{1,2,3,4,5,6,8,10,11,12,13,16,17,21,23,24,26,27,28,29,30},
	{2,3,4,6,7,8,9,10,11,12,13,14,16,17,19,21,22,23,24,25,26,27,30},
	{1,2,3,4,6,8,10,12,13,14,15,16,17,18,20,21,22,23,24,26,27,28,30},
	{1,2,3,4,6,8,10,12,13,14,15,16,17,18,20,21,22,23,24,26,27,28,30},
	{2,3,4,6,7,8,9,10,11,12,13,14,16,17,19,21,22,23,24,25,26,27,30},
	{1,2,3,5,6,11,12,14,15,16,18,20,22,23,24,26,28,29,30},
	{1,2,3,5,6,7,9,11,12,13,14,16,17,19,21,22,23,24,25,26,28,29,30},
	{1,3,6,7,9,11,12,13,14,15,16,17,18,19,20,21,22,23,24,25,26,28,30},
	{1,2,3,4,5,6,8,10,11,12,13,16,17,21,23,24,26,27,28,29,30},
	{1,3,6,7,9,11,12,13,14,15,16,17,18,19,20,21,22,23,24,25,26,28,30},
	{1,2,3,4,5,6,8,10,11,12,13,16,17,21,23,24,26,27,28,29,30},
	{2,3,4,6,7,8,9,10,11,12,13,14,16,17,19,21,22,23,24,25,26,27,30},
	{1,2,3,5,6,11,12,14,15,16,18,20,22,23,24,26,28,29,30},
	{1,2,3,4,5,6,8,10,11,12,13,16,17,21,23,24,26,27,28,29,30},
	{1,2,3,4,6,8,10,12,13,14,15,16,17,18,20,21,22,23,24,26,27,28,30},
	{1,2,3,4,5,6,8,10,11,12,13,16,17,21,23,24,26,27,28,29,30},
	{1,3,6,7,9,11,12,13,14,15,16,17,18,19,20,21,22,23,24,25,26,28,30},
	{1,3,6,7,9,11,12,13,14,15,16,17,18,19,20,21,22,23,24,25,26,28,30},
	{2,3,4,6,7,8,9,10,11,12,13,14,16,17,19,21,22,23,24,25,26,27,30},
	{1,2,3,5,6,7,9,11,12,13,14,16,17,19,21,22,23,24,25,26,28,29,30},
	{1,2,3,4,6,8,10,12,13,14,15,16,17,18,20,21,22,23,24,26,27,28,30},
	{1,2,3,5,6,7,9,11,12,13,14,16,17,19,21,22,23,24,25,26,28,29,30},
	{1,2,3,5,6,7,9,11,12,13,14,16,17,19,21,22,23,24,25,26,28,29,30},
	{1,2,3,4,6,8,10,12,13,14,15,16,17,18,20,21,22,23,24,26,27,28,30},
	{1,2,3,5,6,11,12,14,15,16,18,20,22,23,24,26,28,29,30},
	{1,2,3,5,6,11,12,14,15,16,18,20,22,23,24,26,28,29,30},
	{1,3,6,7,9,11,12,13,14,15,16,17,18,19,20,21,22,23,24,25,26,28,30},
	{2,3,4,6,7,8,9,10,11,12,13,14,16,17,19,21,22,23,24,25,26,27,30},
	{1,2,3,5,6,11,12,14,15,16,18,20,22,23,24,26,28,29,30},
	{1,2,3,5,6,11,12,14,15,16,18,20,22,23,24,26,28,29,30},
	{1,2,3,4,5,6,8,10,11,12,13,16,17,21,23,24,26,27,28,29,30},
	{1,2,3,4,5,6,8,10,11,12,13,16,17,21,23,24,26,27,28,29,30},
	{1,3,6,7,9,11,12,13,14,15,16,17,18,19,20,21,22,23,24,25,26,28,30},
	{}];

POTENTIAL_ACT = [{2,3,6,7,9,11,12,14,15,16,17,18,19,21,22,23,24,25,26,28,29,30,31,32,33,34,35,37,38,39,40,41},
	{2,3,4,5,6,7,8,9,10,11,12,13,14,15,17,19,20,21,22,23,24,27,28,29,30,31,32,33,34,36,37,38,39,40},
	{2,3,4,5,6,7,8,9,10,11,12,13,14,15,16,17,18,19,20,21,22,23,24,25,26,27,28,29,30,31,32,33,34,35,36,37,38,39,40,41},
	{2,4,5,8,9,10,11,12,13,17,19,20,22,23,24,27,29,32,36,39,40},
	{3,6,7,9,14,15,17,19,21,22,24,28,30,31,33,34,37,38,39,40},
	{2,3,4,5,6,7,8,9,10,11,12,13,14,15,16,17,18,19,20,21,22,23,24,25,26,27,28,29,30,31,32,33,34,35,36,37,38,39,40,41},
	{3,4,5,6,7,8,10,13,15,16,18,20,25,26,27,28,30,31,35,36,41},
	{2,4,5,8,9,10,11,12,13,17,19,20,22,23,24,27,29,32,36,39,40},
	{3,4,5,6,7,8,10,13,15,16,18,20,25,26,27,28,30,31,35,36,41},
	{2,4,5,8,9,10,11,12,13,17,19,20,22,23,24,27,29,32,36,39,40},
	{3,4,5,6,7,8,9,10,13,14,15,16,17,18,19,20,21,22,24,25,26,27,28,30,31,33,34,35,36,37,38,39,40,41},
	{2,3,4,5,6,7,8,9,10,11,12,13,14,15,16,17,18,19,20,21,22,23,24,25,26,27,28,29,30,31,32,33,34,35,36,37,38,39,40,41},
	{2,3,4,5,6,7,8,9,10,11,12,13,15,16,17,18,19,20,22,23,24,25,26,27,28,29,30,31,32,35,36,39,40,41},
	{2,3,4,5,6,7,8,10,11,12,13,14,15,16,18,20,21,23,25,26,27,28,29,30,31,32,33,34,35,36,37,38,41},
	{2,11,12,14,16,18,21,23,25,26,29,32,33,34,35,37,38,41},
	{2,3,4,5,6,7,8,9,10,11,12,13,14,15,16,17,18,19,20,21,22,23,24,25,26,27,28,29,30,31,32,33,34,35,36,37,38,39,40,41},
	{2,3,4,5,6,7,8,9,10,11,12,13,15,16,17,18,19,20,22,23,24,25,26,27,28,29,30,31,32,35,36,39,40,41},
	{2,11,12,14,16,18,21,23,25,26,29,32,33,34,35,37,38,41},
	{3,4,5,6,7,8,10,13,15,16,18,20,25,26,27,28,30,31,35,36,41},
	{2,11,12,14,16,18,21,23,25,26,29,32,33,34,35,37,38,41},
	{2,3,4,5,6,7,8,9,10,11,12,13,15,16,17,18,19,20,22,23,24,25,26,27,28,29,30,31,32,35,36,39,40,41},
	{2,3,4,5,6,7,8,10,11,12,13,14,15,16,18,20,21,23,25,26,27,28,29,30,31,32,33,34,35,36,37,38,41},
	{2,3,4,5,6,7,8,9,10,11,12,13,14,15,16,17,18,19,20,21,22,23,24,25,26,27,28,29,30,31,32,33,34,35,36,37,38,39,40,41},
	{2,3,4,5,6,7,8,9,10,11,12,13,14,15,16,17,18,19,20,21,22,23,24,25,26,27,28,29,30,31,32,33,34,35,36,37,38,39,40,41},
	{3,4,5,6,7,8,10,13,15,16,18,20,25,26,27,28,30,31,35,36,41},
	{2,3,4,5,6,7,8,9,10,11,12,13,14,15,16,17,18,19,20,21,22,23,24,25,26,27,28,29,30,31,32,33,34,35,36,37,38,39,40,41},
	{2,4,5,8,9,10,11,12,13,17,19,20,22,23,24,27,29,32,36,39,40},
	{2,3,6,7,9,11,12,14,15,16,17,18,19,21,22,23,24,25,26,28,29,30,31,32,33,34,35,37,38,39,40,41},
	{3,6,7,9,14,15,17,19,21,22,24,28,30,31,33,34,37,38,39,40},
	{2,3,4,5,6,7,8,9,10,11,12,13,14,15,16,17,18,19,20,21,22,23,24,25,26,27,28,29,30,31,32,33,34,35,36,37,38,39,40,41}];
